20
0 1 0.33 0.33
0 2 0.26 0.26
0 3 0.38 0.38
0 4 0.18 0.18
0 5 0.42 0.42
0 6 0.22 0.22
0 7 0.63 0.14
0 8 0.66 0.12
0 9 0.69 0.26
0 10 0.23 0.23
0 11 0.12 0.12
0 12 0.78 0.31
0 13 0.59 0.22
0 14 0.42 0.42
0 15 0.32 0.32
0 16 0.12 0.12
0 17 0.84 0.17
0 18 0.66 0.25
0 19 0.37 0.37
1 2 0.62 0.23
1 3 0.28 0.28
1 4 0.59 0.24
1 5 0.24 0.24
1 6 0.33 0.33
1 7 0.39 0.2
1 8 0.22 0.22
1 9 0.38 0.08
1 10 0.79 0.1
1 11 0.61 0.21
1 12 0.26 0.26
1 13 0.46 0.14
1 14 0.84 0.39
1 15 0.6 0.17
1 16 0.28 0.28
1 17 0.29 0.29
1 18 0.33 0.33
1 19 0.09 0.09
2 3 0.27 0.27
2 4 0.3 0.3
2 5 0.65 0.29
2 6 0.51 0.32
2 7 0.35 0.26
2 8 0.7 0.26
2 9 0.67 0.27
2 10 0.18 0.18
2 11 0.5 0.14
2 12 0.48 0.23
2 13 0.32 0.32
2 14 0.62 0.38
2 15 0.53 0.06
2 16 0.28 0.28
2 17 0.29 0.29
2 18 0.45 0.31
2 19 0.14 0.14
3 4 0.32 0.32
3 5 0.55 0.43
3 6 0.19 0.19
3 7 0.28 0.28
3 8 0.68 0.26
3 9 0.36 0.36
3 10 0.6 0.18
3 11 0.57 0.29
3 12 0.1 0.1
3 13 0.16 0.16
3 14 0.63 0.11
3 15 0.21 0.21
3 16 0.82 0.36
3 17 0.6 0.42
3 18 0.63 0.24
3 19 0.64 0.29
4 5 0.32 0.32
4 6 0.45 0.32
4 7 0.2 0.04
4 8 0.06 0.06
4 9 0.4 0.16
4 10 0.55 0.33
4 11 0.56 0.28
4 12 0.7 0.41
4 13 0.16 0.16
4 14 0.72 0.4
4 15 0.28 0.24
4 16 0.46 0.3
4 17 0.35 0.35
4 18 0.24 0.24
4 19 0.32 0.32
5 6 0.41 0.41
5 7 0.28 0.28
5 8 0.3 0.3
5 9 0.61 0.16
5 10 0.75 0.34
5 11 0.43 0.43
5 12 0.54 0.33
5 13 0.38 0.38
5 14 0.36 0.36
5 15 0.23 0.23
5 16 0.4 0.35
5 17 0.35 0.35
5 18 0.3 0.3
5 19 0.42 0.15
6 7 0.36 0.36
6 8 0.8 0.34
6 9 0.25 0.25
6 10 0.68 0.37
6 11 0.34 0.34
6 12 0.49 0.09
6 13 0.32 0.32
6 14 0.46 0.3
6 15 0.73 0.38
6 16 0.25 0.25
6 17 0.56 0.23
6 18 0.38 0.38
6 19 0.74 0.37
7 8 0.38 0.02
7 9 0.48 0.12
7 10 0.65 0.3
7 11 0.24 0.24
7 12 0.5 0.38
7 13 0.58 0.12
7 14 0.36 0.36
7 15 0.48 0.22
7 16 0.66 0.26
7 17 0.46 0.31
7 18 0.72 0.2
7 19 0.58 0.29
8 9 0.82 0.14
8 10 0.8 0.32
8 11 0.62 0.24
8 12 0.36 0.36
8 13 0.86 0.1
8 14 0.48 0.34
8 15 0.2 0.2
8 16 0.24 0.24
8 17 0.29 0.29
8 18 0.18 0.18
8 19 0.52 0.28
9 10 0.52 0.18
9 11 0.29 0.29
9 12 0.57 0.34
9 13 0.54 0.22
9 14 0.46 0.46
9 15 0.25 0.25
9 16 0.2 0.2
9 17 0.22 0.22
9 18 0.61 0.32
9 19 0.17 0.17
10 11 0.11 0.11
10 12 0.28 0.28
10 13 0.24 0.24
10 14 0.7 0.29
10 15 0.24 0.24
10 16 0.5 0.25
10 17 0.93 0.39
10 18 0.42 0.42
10 19 0.19 0.19
11 12 0.37 0.37
11 13 0.34 0.34
11 14 0.72 0.4
11 15 0.2 0.2
11 16 0.32 0.14
11 17 0.29 0.29
11 18 0.32 0.32
11 19 0.28 0.28
12 13 0.47 0.26
12 14 0.21 0.21
12 15 0.29 0.29
12 16 0.36 0.26
12 17 0.32 0.32
12 18 0.45 0.3
12 19 0.29 0.28
13 14 0.27 0.27
13 15 0.26 0.26
13 16 0.28 0.28
13 17 0.53 0.39
13 18 0.7 0.28
13 19 0.58 0.23
14 15 0.82 0.32
14 16 0.38 0.38
14 17 0.38 0.36
14 18 0.28 0.28
14 19 0.52 0.36
15 16 0.31 0.31
15 17 0.49 0.28
15 18 0.58 0.37
15 19 0.3 0.08
16 17 0.29 0.29
16 18 0.22 0.22
16 19 0.37 0.37
17 18 0.48 0.42
17 19 0.2 0.2
18 19 0.3 0.3
